Test: hole016_shuffled.cnf
Options: -no-inverting-opt
WARNING: for repeatability, setting FPU to use double precision
============================[ Problem Statistics ]=============================
|                                                                             |
|  Number of symmetries:           31                                         |
|  Number of invertingSyms:         0                                         |
|  Number of variables:           272                                         |
|  Number of clauses:            2193                                         |
|  Parse time:                   0.00 s                                       |
|                                                                             |
============================[ Search Statistics ]==============================
| Conflicts |          ORIGINAL         |          LEARNT          | Progress |
|           |    Vars  Clauses Literals |    Limit  Clauses Lit/Cl |          |
===============================================================================
|       100 |     272     2193     4624 |      804      107    103 |  0.001 % |
|       250 |     272     2193     4624 |      884      326     86 |  0.001 % |
|       475 |     272     2193     4624 |      972      676     85 |  0.001 % |
|       812 |     272     2193     4624 |     1070      592     79 |  0.001 % |
|      1318 |     272     2193     4624 |     1177      750     70 |  0.001 % |
|      2077 |     272     2193     4624 |     1295     1235     66 |  0.001 % |
|      3216 |     272     2193     4624 |     1424     1237     70 |  0.001 % |
|      4924 |     272     2193     4624 |     1566      877     78 |  0.001 % |
|      7486 |     272     2193     4624 |     1723     1369     96 |  0.001 % |
|     11330 |     272     2193     4624 |     1896     1533     92 |  0.023 % |
|     17096 |     272     2193     4624 |     2085     1803     92 |  0.001 % |
|     25745 |     272     2193     4624 |     2294     1618    101 |  0.001 % |
|     38719 |     272     2193     4624 |     2523     2210    100 |  0.001 % |
|     58180 |     272     2193     4624 |     2775     2008    104 |  0.001 % |
|     87372 |     272     2193     4624 |     3053     2875    107 |  0.001 % |
|    131161 |     272     2193     4624 |     3358     2348    108 |  0.001 % |
|    196845 |     272     2193     4624 |     3694     1980     94 |  0.001 % |
|    295371 |     272     2193     4624 |     4064     2201     85 |  0.001 % |
|    443160 |     272     2193     4624 |     4470     2830     92 |  0.001 % |
|    664843 |     272     2193     4624 |     4917     2568    109 |  0.001 % |
|    997368 |     272     2193     4624 |     5409     2695    109 |  0.001 % |
|   1496156 |     272     2193     4624 |     5950     3629     97 |  0.001 % |
|   2244338 |     272     2193     4624 |     6545     4622     96 |  0.001 % |
===============================================================================
restarts              : 4095
conflicts             : 2458278        (16041 /sec)
symconflicts          : 224286         (1463 /sec)
decisions             : 3884224        (0.00 % random) (25345 /sec)
propagations          : 50052364       (326598 /sec)
sympropagations       : 1290700        (8422 /sec)
conflict literals     : 260577229      (6.34 % deleted)
literals     : 260577229      (6.34 % deleted)

HEURISTIC USAGES
random                : 0           
activity w/ lookahead : 0           
activity no lookahead : 0           
original sp           : 3884224     
sym count             : 0           

Memory used           : 23.00 MB
CPU time              : 153.254 s

UNSATISFIABLE
